c 78_3_checker.cnf
c
c field = 78
c formula set type = 3_checker
c
p cnf 4 46
150 
152 
156 
-158 
151 
153 
157 
-159 
152 
156 
158 
-150 
153 
157 
159 
-151 
152 
156 
158 
-160 
153 
157 
159 
-161 
156 
158 
160 
-152 
157 
159 
161 
-153 
156 
158 
160 
-162 
157 
159 
161 
-163 
64 
94 
124 
-34 
65 
95 
125 
-35 
64 
94 
124 
-184 
65 
95 
125 
-185 
94 
124 
184 
-64 
95 
125 
185 
-65 
94 
124 
184 
-214 
95 
125 
185 
-215 
124 
184 
214 
-94 
125 
185 
215 
-95 
124 
184 
214 
-244 
125 
185 
215 
-245 
184 
214 
244 
-124 
185 
215 
245 
-125 
184 
214 
244 
-274 
185 
215 
245 
-275 
90 
122 
186 
-218 
91 
123 
187 
-219 
122 
186 
218 
-90 
123 
187 
219 
-91 
122 
186 
218 
-250 
123 
187 
219 
-251 
186 
218 
250 
-122 
187 
219 
251 
-123 
186 
218 
250 
-282 
187 
219 
251 
-283 
70 
98 
126 
-42 
71 
99 
127 
-43 
70 
98 
126 
-182 
71 
99 
127 
-183 
98 
126 
182 
-70 
99 
127 
183 
-71 
98 
126 
182 
-210 
99 
127 
183 
-211 
126 
182 
210 
-98 
127 
183 
211 
-99 
